NAME : problem.tsptw
TYPE : TSPTW
DIMENSION : 10
EDGE_WEIGHT_TYPE : EXPLICIT
EDGE_WEIGHT_FORMAT : FULL_MATRIX
EDGE_WEIGHT_SECTION
0 3243 3118 3051 2803 2486 2448 3165 3163 3127
2850 0 357 829 631 906 1063 404 111 181
2877 271 0 586 545 820 977 54 239 346
2727 733 512 0 472 779 883 458 632 808
2445 866 594 411 0 445 601 649 715 941
2220 1075 804 857 442 0 197 859 802 961
2061 1281 1010 950 631 293 0 1064 1008 1190
2929 323 56 523 601 876 1033 0 296 398
2928 104 245 713 648 923 1079 299 0 198
2725 591 320 696 450 725 881 374 269 0
TIME_WINDOW_SECTION
1 0 600000
2 3600 9000
3 10800 16200
4 3600 9000
5 5400 16200
6 0 5400
7 3600 14400
8 7200 12600
9 12600 23400
10 7200 12600
DEPOT_SECTION
1
-1
EOF